<number of tasks>
29

<cycle time>
33

<task times>
1 7
2 19
3 15
4 5
5 12
6 10
7 8
8 16
9 2
10 6
11 21
12 10
13 9
14 4
15 14
16 7
17 14
18 17
19 10
20 16
21 1
22 9
23 25
24 14
25 14
26 2
27 10
28 7
29 20

<precedence relations>
1,3
1,25
2,6
2,26
3,4
4,5
5,8
5,13
6,8
7,9
7,12
7,25
8,11
8,16
9,10
10,14
10,15
11,17
12,15
13,17
14,16
15,19
16,18
17,20
18,22
19,21
20,23
21,22
22,23
23,24
23,28
24,29
25,29
26,27
27,29
28,29

<setup times forward>
1,2:3
1,3:1
1,6:2
1,9:2
1,10:1
1,14:3
1,15:4
1,19:1
1,21:2
1,25:1
1,26:3
1,27:4
2,1:3
2,3:4
2,4:2
2,5:2
2,6:5
2,7:3
2,9:1
2,10:4
2,12:3
2,13:2
2,15:7
2,19:2
2,21:1
2,25:4
2,26:6
3,2:4
3,4:2
3,6:1
3,7:1
3,9:3
3,12:1
3,14:4
3,15:3
3,19:2
3,21:3
3,26:2
3,27:3
4,2:2
4,6:3
4,7:1
4,9:1
4,10:2
4,12:1
4,14:2
4,15:5
4,21:1
4,25:2
4,26:4
4,27:5
5,2:2
5,6:3
5,7:1
5,8:4
5,9:1
5,10:2
5,12:1
5,14:2
5,15:5
5,21:1
5,25:2
5,26:4
5,27:5
6,1:2
6,3:1
6,4:3
6,5:3
6,7:2
6,8:1
6,9:4
6,10:1
6,12:2
6,13:3
6,14:5
6,15:2
6,19:3
6,21:4
6,25:1
6,26:1
6,27:2
7,2:3
7,3:1
7,4:1
7,5:1
7,6:2
7,8:3
7,9:2
7,11:3
7,13:1
7,17:3
7,20:2
7,25:1
7,26:3
7,27:4
8,7:3
8,9:5
8,10:2
8,12:3
8,13:4
8,14:6
8,15:1
8,16:1
8,19:4
8,21:5
8,25:2
8,27:1
9,1:2
9,2:1
9,3:3
9,4:1
9,5:1
9,6:4
9,8:5
9,10:3
9,11:5
9,12:2
9,13:1
9,17:1
9,25:3
9,26:5
9,27:6
10,1:1
10,2:4
10,4:2
10,5:2
10,6:1
10,8:2
10,11:2
10,12:1
10,13:2
10,14:4
10,15:3
10,17:4
10,20:3
10,26:2
10,27:3
11,7:3
11,9:5
11,10:2
11,12:3
11,13:4
11,14:6
11,15:1
11,16:1
11,17:6
11,18:2
11,19:4
11,21:5
11,25:2
11,27:1
12,2:3
12,3:1
12,4:1
12,5:1
12,6:2
12,8:3
12,9:2
12,10:1
12,11:3
12,13:1
12,14:3
12,15:4
12,16:4
12,17:3
12,18:1
12,20:2
12,25:1
12,26:3
12,27:4
13,2:2
13,6:3
13,7:1
13,8:4
13,9:1
13,10:2
13,11:4
13,12:1
13,14:2
13,15:5
13,16:5
13,17:2
13,18:2
13,21:1
13,22:4
13,25:2
13,26:4
13,27:5
14,1:3
14,3:4
14,4:2
14,5:2
14,6:5
14,8:6
14,11:6
14,12:3
14,13:2
14,15:7
14,16:7
14,19:2
14,20:1
14,21:1
14,25:4
14,26:6
14,27:7
15,1:4
15,2:7
15,3:3
15,4:5
15,5:5
15,6:2
15,8:1
15,11:1
15,13:5
15,14:7
15,17:7
15,18:3
15,19:5
15,20:6
15,25:3
15,26:1
16,11:1
16,12:4
16,13:5
16,17:7
16,18:3
16,19:5
16,20:6
16,21:6
16,25:3
16,26:1
17,7:3
17,9:1
17,10:4
17,12:3
17,15:7
17,16:7
17,18:4
17,19:2
17,20:1
17,21:1
17,22:6
17,25:4
17,26:6
17,27:7
18,11:2
18,12:1
18,13:2
18,15:3
18,17:4
18,19:2
18,20:3
18,21:3
18,22:2
18,26:2
18,27:3
19,1:1
19,2:2
19,3:2
19,6:3
19,8:4
19,11:4
19,14:2
19,16:5
19,17:2
19,18:2
19,20:1
19,21:1
19,25:2
19,26:4
19,27:5
20,7:2
20,10:3
20,12:2
20,14:1
20,15:6
20,16:6
20,18:3
20,19:1
20,22:5
20,25:3
20,26:5
20,27:6
21,1:2
21,2:1
21,3:3
21,4:1
21,5:1
21,6:4
21,8:5
21,11:5
21,13:1
21,14:1
21,16:6
21,17:1
21,18:3
21,22:5
21,25:3
21,26:5
21,27:6
22,13:4
22,17:6
22,20:5
22,23:5
22,25:2
22,27:1
23,24:3
23,25:3
23,26:5
23,27:6
23,28:1
24,26:2
24,27:3
24,28:2
24,29:3
25,2:4
25,4:2
25,5:2
25,6:1
25,8:2
25,9:3
25,11:2
25,12:1
25,13:2
25,14:4
25,15:3
25,16:3
25,17:4
25,19:2
25,20:3
25,21:3
25,22:2
25,23:3
25,26:2
25,27:3
25,28:2
25,29:3
26,1:3
26,3:2
26,4:4
26,5:4
26,6:1
26,7:3
26,9:5
26,10:2
26,12:3
26,13:4
26,14:6
26,15:1
26,16:1
26,17:6
26,18:2
26,19:4
26,20:5
26,21:5
26,23:5
26,24:2
26,25:2
26,27:1
26,28:4
27,1:4
27,3:3
27,4:5
27,5:5
27,6:2
27,7:4
27,8:1
27,9:6
27,10:3
27,11:1
27,12:4
27,13:5
27,14:7
27,17:7
27,18:3
27,19:5
27,20:6
27,21:6
27,22:1
27,23:6
27,24:3
27,25:3
27,28:5
28,24:2
28,25:2
28,26:4
28,27:5
28,29:5

<setup times backward>
1,1:8
1,2:5
1,6:10
1,7:8
1,9:6
1,10:9
1,12:8
1,14:5
1,15:12
1,19:7
1,21:6
1,26:11
1,27:12
2,1:11
2,2:8
2,3:12
2,4:10
2,5:10
2,7:11
2,9:9
2,10:12
2,12:11
2,13:10
2,14:8
2,15:15
2,19:10
2,21:9
2,25:12
3,1:7
3,2:4
3,3:8
3,6:9
3,7:7
3,9:5
3,10:8
3,12:7
3,14:4
3,15:11
3,19:6
3,21:5
3,25:8
3,26:10
3,27:11
4,1:9
4,2:6
4,3:10
4,4:8
4,6:11
4,7:9
4,9:7
4,10:10
4,12:9
4,14:6
4,15:13
4,19:8
4,21:7
4,25:10
4,26:12
4,27:13
5,1:9
5,2:6
5,3:10
5,4:8
5,5:8
5,6:11
5,7:9
5,9:7
5,10:10
5,12:9
5,14:6
5,15:13
5,19:8
5,21:7
5,25:10
5,26:12
5,27:13
6,1:6
6,2:3
6,3:7
6,4:5
6,5:5
6,6:8
6,7:6
6,9:4
6,10:7
6,12:6
6,13:5
6,14:3
6,15:10
6,19:5
6,21:4
6,25:7
6,26:9
6,27:10
7,1:8
7,2:5
7,3:9
7,4:7
7,5:7
7,6:10
7,7:8
7,8:11
7,11:11
7,13:7
7,17:5
7,20:6
7,26:11
7,27:12
8,1:5
8,2:2
8,3:6
8,4:4
8,5:4
8,6:7
8,7:5
8,8:8
8,9:3
8,10:6
8,12:5
8,13:4
8,14:2
8,15:9
8,19:4
8,21:3
8,25:6
8,26:8
8,27:9
9,1:10
9,2:7
9,3:11
9,4:9
9,5:9
9,6:12
9,7:10
9,8:13
9,9:8
9,11:13
9,12:10
9,13:9
9,17:7
9,20:8
9,25:11
9,26:13
9,27:14
10,1:7
10,2:4
10,3:8
10,4:6
10,5:6
10,6:9
10,7:7
10,8:10
10,9:5
10,10:8
10,11:10
10,12:7
10,13:6
10,17:4
10,20:5
10,25:8
10,26:10
10,27:11
11,1:5
11,2:2
11,3:6
11,4:4
11,5:4
11,6:7
11,7:5
11,8:8
11,9:3
11,10:6
11,11:8
11,12:5
11,13:4
11,14:2
11,15:9
11,16:9
11,18:6
11,19:4
11,21:3
11,22:8
11,25:6
11,26:8
11,27:9
12,1:8
12,2:5
12,3:9
12,4:7
12,5:7
12,6:10
12,7:8
12,8:11
12,9:6
12,10:9
12,11:11
12,12:8
12,13:7
12,14:5
12,16:12
12,17:5
12,18:9
12,20:6
12,25:9
12,26:11
12,27:12
13,1:9
13,2:6
13,3:10
13,4:8
13,5:8
13,6:11
13,7:9
13,8:12
13,9:7
13,10:10
13,11:12
13,12:9
13,13:8
13,14:6
13,15:13
13,16:13
13,18:10
13,19:8
13,21:7
13,22:12
13,25:10
13,26:12
13,27:13
14,1:11
14,2:8
14,3:12
14,4:10
14,5:10
14,6:13
14,7:11
14,8:14
14,9:9
14,10:12
14,11:14
14,12:11
14,13:10
14,14:8
14,15:15
14,17:8
14,19:10
14,20:9
14,21:9
14,25:12
14,26:14
14,27:15
15,1:4
15,2:1
15,3:5
15,4:3
15,5:3
15,6:6
15,7:4
15,8:7
15,9:2
15,10:5
15,11:7
15,12:4
15,13:3
15,14:1
15,15:8
15,16:8
15,17:1
15,18:5
15,20:2
15,25:5
15,26:7
15,27:8
16,1:4
16,2:1
16,3:5
16,4:3
16,5:3
16,6:6
16,7:4
16,8:7
16,9:2
16,10:5
16,11:7
16,12:4
16,13:3
16,14:1
16,15:8
16,16:8
16,17:1
16,19:3
16,20:2
16,21:2
16,25:5
16,26:7
16,27:8
17,1:11
17,2:8
17,3:12
17,4:10
17,5:10
17,6:13
17,7:11
17,8:14
17,9:9
17,10:12
17,11:14
17,12:11
17,13:10
17,14:8
17,15:15
17,16:15
17,17:8
17,18:12
17,19:10
17,21:9
17,22:14
17,25:12
17,26:14
17,27:15
18,1:7
18,2:4
18,3:8
18,4:6
18,5:6
18,6:9
18,7:7
18,8:10
18,9:5
18,10:8
18,11:10
18,12:7
18,13:6
18,14:4
18,15:11
18,16:11
18,17:4
18,18:8
18,19:6
18,20:5
18,21:5
18,25:8
18,26:10
18,27:11
19,1:9
19,2:6
19,3:10
19,4:8
19,5:8
19,6:11
19,7:9
19,8:12
19,9:7
19,10:10
19,11:12
19,12:9
19,13:8
19,14:6
19,15:13
19,16:13
19,17:6
19,18:10
19,19:8
19,20:7
19,25:10
19,26:12
19,27:13
20,1:10
20,2:7
20,3:11
20,4:9
20,5:9
20,6:12
20,7:10
20,8:13
20,9:8
20,10:11
20,11:13
20,12:10
20,13:9
20,14:7
20,15:14
20,16:14
20,17:7
20,18:11
20,19:9
20,20:8
20,21:8
20,22:13
20,25:11
20,26:13
20,27:14
21,1:10
21,2:7
21,3:11
21,4:9
21,5:9
21,6:12
21,7:10
21,8:13
21,9:8
21,10:11
21,11:13
21,12:10
21,13:9
21,14:7
21,15:14
21,16:14
21,17:7
21,18:11
21,19:9
21,20:8
21,21:8
21,25:11
21,26:13
21,27:14
22,1:5
22,2:2
22,3:6
22,4:4
22,5:4
22,6:7
22,7:5
22,8:8
22,9:3
22,10:6
22,11:8
22,12:5
22,13:4
22,14:2
22,15:9
22,16:9
22,17:2
22,18:6
22,19:4
22,20:3
22,21:3
22,22:8
22,25:6
22,26:8
22,27:9
23,1:10
23,2:7
23,3:11
23,4:9
23,5:9
23,6:12
23,7:10
23,8:13
23,9:8
23,10:11
23,11:13
23,12:10
23,13:9
23,14:7
23,15:14
23,16:14
23,17:7
23,18:11
23,19:9
23,20:8
23,21:8
23,22:13
23,23:8
23,25:11
23,26:13
23,27:14
24,1:7
24,2:4
24,3:8
24,4:6
24,5:6
24,6:9
24,7:7
24,8:10
24,9:5
24,10:8
24,11:10
24,12:7
24,13:6
24,14:4
24,15:11
24,16:11
24,17:4
24,18:8
24,19:6
24,20:5
24,21:5
24,22:10
24,23:5
24,24:8
24,25:8
24,26:10
24,27:11
24,28:6
25,1:7
25,2:4
25,3:8
25,4:6
25,5:6
25,6:9
25,7:7
25,8:10
25,9:5
25,10:8
25,11:10
25,12:7
25,13:6
25,14:4
25,15:11
25,16:11
25,17:4
25,18:8
25,19:6
25,20:5
25,21:5
25,22:10
25,23:5
25,24:8
25,25:8
25,26:10
25,27:11
25,28:6
26,1:5
26,2:2
26,3:6
26,4:4
26,5:4
26,6:7
26,7:5
26,8:8
26,9:3
26,10:6
26,11:8
26,12:5
26,13:4
26,14:2
26,15:9
26,16:9
26,17:2
26,18:6
26,19:4
26,20:3
26,21:3
26,22:8
26,23:3
26,24:6
26,25:6
26,26:8
26,28:4
27,1:4
27,2:1
27,3:5
27,4:3
27,5:3
27,6:6
27,7:4
27,8:7
27,9:2
27,10:5
27,11:7
27,12:4
27,13:3
27,14:1
27,15:8
27,16:8
27,17:1
27,18:5
27,19:3
27,20:2
27,21:2
27,22:7
27,23:2
27,24:5
27,25:5
27,26:7
27,27:8
27,28:3
28,1:9
28,2:6
28,3:10
28,4:8
28,5:8
28,6:11
28,7:9
28,8:12
28,9:7
28,10:10
28,11:12
28,12:9
28,13:8
28,14:6
28,15:13
28,16:13
28,17:6
28,18:10
28,19:8
28,20:7
28,21:7
28,22:12
28,23:7
28,24:10
28,25:10
28,26:12
28,27:13
28,28:8
29,1:4
29,2:1
29,3:5
29,4:3
29,5:3
29,6:6
29,7:4
29,8:7
29,9:2
29,10:5
29,11:7
29,12:4
29,13:3
29,14:1
29,15:8
29,16:8
29,17:1
29,18:5
29,19:3
29,20:2
29,21:2
29,22:7
29,23:2
29,24:5
29,25:5
29,26:7
29,27:8
29,28:3
29,29:8

<end>

<optimal SALBP-1 value>
11


<rand seed>
467321153

<Lower Bounds>
Lm1=10
Lms1=10
Lm2=5
Lm3=7
Lm4=11
Best=11

<Optimal Stations (Iterations: 10)>
16
